words_hard_train/6765.qaiger
aag 56 14 0 1 42
2
4
8
10
14
18
22
40
52
64
72
80
82
96
113
6 3 4
12 8 10
16 12 14
20 16 18
24 21 22
26 7 25
28 20 23
30 29 3
32 26 30
34 27 4
36 34 31
38 33 37
42 25 40
44 24 41
46 43 45
48 17 19
50 49 21
54 51 53
56 50 52
58 55 57
60 13 15
62 61 17
66 63 65
68 62 64
70 67 69
74 11 73
76 10 72
78 75 77
84 80 83
86 81 82
88 85 87
90 78 88
92 9 11
94 93 13
98 94 97
100 95 96
102 99 101
104 90 102
106 71 104
108 59 106
110 46 108
112 39 110
i0 1 x1[7]
i1 1 x1[5]
i2 2 y1[4]
i3 2 y1[3]
i4 2 y1[5]
i5 2 y1[6]
i6 2 y1[7]
i7 1 x1[6]
i8 1 x1[4]
i9 1 x1[3]
i10 1 x1[1]
i11 2 y1[2]
i12 1 x1[0]
i13 1 x1[2]
o0 bool[0]
c
simplified
  !=
    1 x1
    add
      add
        1
        1
      >> 2
        2 y1
