words_hard_train/6765.qaiger.qdimacs
p cnf 56 127
a 32 1 2 36 41 48 20 26 0
e 3 4 5 6 7 8 9 10 11 12 13 14 15 16 17 18 19 21 22 23 24 25 27 28 29 30 31 33 34 35 37 38 39 40 42 43 44 45 46 47 49 50 51 52 53 54 55 56 0
1 -2 3 0
-1 -3 0
2 -3 0
-4 -5 6 0
4 -6 0
5 -6 0
-6 -7 8 0
6 -8 0
7 -8 0
-8 -9 10 0
8 -10 0
9 -10 0
10 -11 12 0
-10 -12 0
11 -12 0
3 12 13 0
-3 -13 0
-12 -13 0
-10 11 14 0
10 -14 0
-11 -14 0
14 1 15 0
-14 -15 0
-1 -15 0
-13 -15 16 0
13 -16 0
15 -16 0
13 -2 17 0
-13 -17 0
2 -17 0
-17 15 18 0
17 -18 0
-15 -18 0
16 18 19 0
-16 -19 0
-18 -19 0
12 -20 21 0
-12 -21 0
20 -21 0
-12 20 22 0
12 -22 0
-20 -22 0
21 22 23 0
-21 -23 0
-22 -23 0
8 9 24 0
-8 -24 0
-9 -24 0
24 10 25 0
-24 -25 0
-10 -25 0
25 26 27 0
-25 -27 0
-26 -27 0
-25 -26 28 0
25 -28 0
26 -28 0
27 28 29 0
-27 -29 0
-28 -29 0
6 7 30 0
-6 -30 0
-7 -30 0
30 8 31 0
-30 -31 0
-8 -31 0
31 32 33 0
-31 -33 0
-32 -33 0
-31 -32 34 0
31 -34 0
32 -34 0
33 34 35 0
-33 -35 0
-34 -35 0
5 36 37 0
-5 -37 0
-36 -37 0
-5 -36 38 0
5 -38 0
36 -38 0
37 38 39 0
-37 -39 0
-38 -39 0
-40 41 42 0
40 -42 0
-41 -42 0
40 -41 43 0
-40 -43 0
41 -43 0
42 43 44 0
-42 -44 0
-43 -44 0
-39 -44 45 0
39 -45 0
44 -45 0
4 5 46 0
-4 -46 0
-5 -46 0
46 6 47 0
-46 -47 0
-6 -47 0
-47 48 49 0
47 -49 0
-48 -49 0
47 -48 50 0
-47 -50 0
48 -50 0
49 50 51 0
-49 -51 0
-50 -51 0
-45 -51 52 0
45 -52 0
51 -52 0
35 -52 53 0
-35 -53 0
52 -53 0
29 -53 54 0
-29 -54 0
53 -54 0
-23 -54 55 0
23 -55 0
54 -55 0
19 -55 56 0
-19 -56 0
55 -56 0
-56 0
